p cnf 15 22
15 14 10 0
-15 12 -7 0
-15 -12 7 0
-15 10 -4 0
15 8 -4 0
14 -13 -7 0
14 -13 -2 0
14 9 6 0
-14 4 2 0
13 -8 -6 0
-12 -11 1 0
12 10 3 0
12 -9 -7 0
12 6 5 0
11 -6 4 0
-11 -2 1 0
-10 -9 -7 0
10 8 -6 0
-9 -5 -3 0
-9 5 2 0
8 5 2 0
-7 6 -2 0
